4603393
8,85,45,19,67,39,52,49,43,73,60,11,42,89,61,37,68,12,71,97,53,44,80,47,22,92,54,94,23,76,28,90,88,34,98,99,31,96,69,41,75,17,87,72,20,5,81,18,78,79,59,65,33,77,15,14,84,9,48,3,83,70,62,13,74,4,24,38,27,40,66,55,63,10,91,58,86,21,7,6,30,1,57,50,95,32,35,2,82,51,29,26,25,46,16,64,36,56,93